4 
5 
6  08 23 38 57 
7  04 12 19 27 34 42 49 57 
8  04 12 19 27 34 42 49 57 
9  04 12 19 27 34 49 
10  04 19 34 49 
11  04 19 34 49 
12  04 19 34 49 
13  04 21 36 51 
14  06 21 36 51 
15  06 21 28 36 44 51 59 
16  06 14 21 29 36 44 51 59 
17  06 14 21 29 36 44 51 59 
18  06 14 21 29 36 44 51 58 
19  06 20 34 49 
20  04 19 34 49 
21  04 16 31 46 
22  01 16 31 46 59 
23  14 30 45 
0 
